p cnf 7230 15
1190 1367 -1834 0
-1190 -1835 0
1836 1837 0
1442 -1837 0
-1442 -1836 0
1834 1835 0
-1831 1833 0
1832 -1833 0
1830 -1832 0
-1440 1831 0
1440 -1830 0
-1367 -1835 0
-1828 1829 0
-1325 -1839 0
-1192 -1839 0
